c Reduced graph for jean_1 generated by Cyril Grelier
p edge 44 195
e 1 2
e 1 3
e 1 4
e 1 5
e 1 6
e 1 7
e 1 9
e 1 16
e 1 17
e 1 18
e 1 19
e 1 21
e 1 24
e 1 25
e 1 33
e 1 34
e 1 35
e 1 36
e 1 37
e 1 38
e 1 39
e 1 40
e 1 41
e 1 42
e 2 3
e 2 4
e 2 5
e 2 6
e 2 8
e 2 9
e 2 10
e 2 11
e 2 12
e 2 13
e 2 14
e 2 17
e 2 18
e 2 20
e 2 21
e 2 23
e 2 26
e 2 43
e 2 44
e 3 4
e 3 5
e 3 8
e 3 9
e 3 10
e 3 11
e 3 12
e 3 13
e 3 14
e 3 15
e 3 22
e 3 24
e 3 38
e 3 39
e 4 6
e 4 8
e 4 9
e 4 10
e 4 11
e 4 12
e 4 13
e 4 14
e 4 16
e 4 20
e 4 23
e 5 6
e 5 7
e 5 15
e 5 16
e 5 17
e 5 18
e 5 19
e 5 21
e 5 24
e 5 26
e 6 7
e 6 16
e 6 17
e 6 18
e 6 19
e 6 21
e 6 24
e 6 25
e 7 19
e 7 22
e 7 25
e 7 27
e 7 28
e 7 29
e 7 30
e 7 31
e 7 32
e 8 9
e 8 10
e 8 11
e 8 12
e 8 13
e 8 14
e 8 15
e 8 20
e 8 23
e 9 10
e 9 11
e 9 12
e 9 13
e 9 14
e 9 20
e 9 23
e 10 11
e 10 12
e 10 13
e 10 14
e 10 20
e 10 23
e 11 12
e 11 13
e 11 14
e 11 20
e 11 23
e 12 13
e 12 14
e 12 20
e 12 23
e 13 14
e 13 20
e 13 23
e 14 15
e 15 16
e 15 17
e 15 18
e 15 19
e 15 21
e 15 26
e 16 17
e 16 18
e 16 19
e 16 21
e 16 26
e 17 18
e 17 19
e 17 21
e 17 26
e 18 19
e 18 21
e 18 26
e 19 24
e 20 23
e 21 26
e 22 24
e 22 27
e 22 28
e 22 29
e 22 30
e 22 31
e 22 32
e 24 38
e 24 39
e 25 33
e 25 34
e 25 35
e 25 36
e 25 37
e 27 28
e 27 29
e 27 30
e 27 31
e 27 32
e 28 29
e 28 30
e 28 31
e 28 32
e 29 30
e 29 31
e 29 32
e 30 31
e 30 32
e 31 32
e 33 34
e 33 35
e 33 36
e 33 37
e 34 35
e 34 36
e 34 37
e 35 36
e 35 37
e 36 37
e 38 39
e 40 41
e 40 42
e 41 42
e 43 44
